(declare-fun |#tvar806| () Int)
(declare-fun |#tvar803| () Int)
(declare-fun |#tvar805| () Int)
(declare-fun |#tvar807| () Bool)
(declare-fun |#tvar853| () Int)
(declare-fun |#tvar850| () Int)
(declare-fun |#tvar852| () Int)
(declare-fun |#tvar854| () Bool)
(assert (let ((a!1 (not (= |#tvar806| (+ |#tvar852| (- 1)))))
      (a!2 (and (or (= |#tvar854| true) (= |#tvar807| true))
                (or (not (= |#tvar854| true)) (not (= |#tvar807| true)))))
      (a!3 (or (not (= |#tvar850| (+ |#tvar803| 1)))
               (> |#tvar803| 2147483647)
               (> 0 (+ |#tvar803| 2147483648))))
      (a!4 (and (not (= (- |#tvar852|) 0)) false))
      (a!7 (not (= (+ |#tvar852| (- |#tvar853|)) 0)))
      (a!10 (or (and (= |#tvar850| 0) false) (and (not (= |#tvar850| 0)) true)))
      (a!12 (and (not (= (- |#tvar805|) 0)) false))
      (a!15 (not (= (+ |#tvar805| (- |#tvar806|)) 0)))
      (a!18 (or (and (= |#tvar803| 0) false) (and (not (= |#tvar803| 0)) true))))
(let ((a!5 (or (and (= (- |#tvar852|) 0) true) a!4))
      (a!13 (or (and (= (- |#tvar805|) 0) true) a!12)))
(let ((a!6 (and (= (+ |#tvar852| (- |#tvar853|)) 0) a!5))
      (a!14 (and (= (+ |#tvar805| (- |#tvar806|)) 0) a!13)))
(let ((a!8 (or (and (= |#tvar854| true) false)
               (and (not (= |#tvar854| true)) (or a!6 (and a!7 false)))))
      (a!16 (or (and (= |#tvar807| true) false)
                (and (not (= |#tvar807| true)) (or a!14 (and a!15 false))))))
(let ((a!9 (or (and (= |#tvar850| 0) a!8) (and (not (= |#tvar850| 0)) false)))
      (a!17 (or (and (= |#tvar803| 0) a!16) (and (not (= |#tvar803| 0)) false))))
(let ((a!11 (or (and (<= |#tvar852| 0) a!9) (and (not (<= |#tvar852| 0)) a!10)))
      (a!19 (or (and (<= |#tvar805| 0) a!17) (and (not (<= |#tvar805| 0)) a!18))))
(let ((a!20 (or (and (<= |#tvar806| 15) a!19)
                (and (not (<= |#tvar806| 15)) false))))
(let ((a!21 (or (= 0 |#tvar852|)
                a!1
                a!2
                (and (not (= |#tvar854| true)) a!3)
                (not (= |#tvar852| |#tvar853|))
                (and (<= |#tvar853| 15) a!11)
                (and (not (<= |#tvar853| 15)) false)
                (not a!20))))
  (not a!21))))))))))
(check-sat)
